(set-logic QF_S)
(declare-fun _var_0xINPUT_104929_() String)
(declare-fun __woorpje_diseq_pref0_() String)
(declare-fun __woorpje_diseq_suf_l0_() String)
(declare-fun __woorpje_diseq_suf_r0_() String)
(assert (=(str.++ _var_0xINPUT_104929_  "")(str.++ __woorpje_diseq_pref0_  "m" __woorpje_diseq_suf_l0_  "")) )
(assert (=(str.++  "6bHZCmBRMe" "")(str.++ __woorpje_diseq_pref0_  "e" __woorpje_diseq_suf_r0_  "")) )
(check-sat)
